Maximize

1715.0 x_0 + 955.0 x_1 + 377.0 x_2 + 1212.0 x_3 + 1427.0 x_4 + 240.0 x_5 + 610.0 x_6 + 2180.0 x_7 + 1590.0 x_8 + 1900.0 x_9 + 967.0 x_10 + 1447.0 x_11 + 1240.0 x_12 + 240.0 x_13 + 2175.0 x_14 + 1930.0 x_15 + 610.0 x_16 + 2540.0 x_17 + 867.0 x_18 + 1675.0 x_19


Subject To

a0: 369 x_0 + 196 x_1 + 77 x_2 + 190 x_3 + 267 x_4 + 8 x_5 + 70 x_6 + 514 x_7 + 360 x_8 + 426 x_9 + 126 x_10 + 252 x_11 + 191 x_12 + 8 x_13 + 330 x_14 + 353 x_15 + 190 x_16 + 479 x_17 + 162 x_18 + 371 x_19 <= 1795
b0: 313 x_0 + 182 x_1 + 70 x_2 + 291 x_3 + 300 x_4 + 84 x_5 + 170 x_6 + 354 x_7 + 272 x_8 + 330 x_9 + 257 x_10 + 323 x_11 + 301 x_12 + 84 x_13 + 536 x_14 + 415 x_15 + 50 x_16 + 533 x_17 + 181 x_18 + 295 x_19 <= 1740



Bounds


x_0 <= 2
x_1 <= 3
x_2 <= 5
x_3 <= 2
x_4 <= 3
x_5 <= 5
x_6 <= 4
x_7 <= 3
x_8 <= 3
x_9 <= 2
x_10 <= 3
x_11 <= 3
x_12 <= 2
x_13 <= 5
x_14 <= 2
x_15 <= 3
x_16 <= 5
x_17 <= 2
x_18 <= 4
x_19 <= 3




General

 x_0 x_1 x_2 x_3 x_4 x_5 x_6 x_7 x_8 x_9 x_10 x_11 x_12 x_13 x_14 x_15 x_16 x_17 x_18 x_19



End
